# Solution for model Objective
# Objective value = 9
M 2
W6 1
W7 0
W15 0
W16 0
W17 0
W18 0
W21 0
W24 0
W25 1
W26 1
W27 0
W30 0
W33 0
W34 0
W35 1
W36 1
W37 1
W40 0
W41 0
W42 1
W0 2
W1 2
W2 2
W3 0
W4 2
W5 2
W8 0
W9 0
W10 0
W11 1
W12 0
W13 0
W14 0
W19 2
W20 0
W22 0
W23 2
W28 2
W29 2
W31 0
W32 2
W38 2
W39 2
d0_1 0
d0_2 0
d0_3 0
d0_4 1
d0_5 0
d0_6 0
d0_7 0
d0_8 0
d0_9 0
d0_0 0
d1_1 0
d1_2 1
d1_3 0
d1_4 0
d1_5 0
d1_6 0
d1_7 0
d1_8 0
d1_9 0
d1_0 0
d2_1 0
d2_2 0
d2_3 1
d2_4 0
d2_5 0
d2_6 0
d2_7 0
d2_8 0
d2_9 0
d2_0 0
d3_1 1
d3_2 0
d3_3 0
d3_4 0
d3_5 0
d3_6 0
d3_7 0
d3_8 0
d3_9 0
d3_0 0
